memory 2 GB
molecule {
0 1
H 1.0 0.0 0.0
H 0.0 1.0 0.0
noreorient
symmetry c1
}

set scf_type pk
e,wfn = energy("hf/sto-3g",return_wfn=True)
mints = psi4.core.MintsHelper(wfn.basisset())
print(mints.ao_eri().to_array())
